//Number of items      		
158
//Bin Capacity      
1000
//Known Best Solution  		
76
//Weight of Item
     799         1
     791         1
     786         2
     781         1
     776         1
     771         1
     768         1
     767         1
     764         1
     755         1
     750         1
     749         1
     748         1
     747         2
     743         1
     738         1
     735         1
     734         1
     724         1
     721         1
     720         1
     705         1
     704         1
     703         1
     701         1
     698         1
     697         1
     692         1
     689         1
     685         1
     677         1
     672         1
     670         2
     667         1
     665         1
     650         1
     645         1
     637         1
     631         1
     627         1
     625         1
     623         1
     615         1
     606         1
     605         1
     601         1
     592         1
     586         1
     584         1
     582         1
     581         1
     578         2
     577         1
     573         1
     566         1
     555         1
     553         1
     546         1
     545         1
     544         1
     540         1
     533         1
     529         1
     523         1
     518         1
     517         1
     505         1
     500         2
     491         1
     486         2
     465         1
     461         2
     458         2
     447         1
     440         1
     439         1
     438         1
     436         1
     433         1
     431         1
     428         1
     415         2
     411         2
     406         1
     392         1
     390         1
     389         2
     386         1
     385         1
     384         1
     382         1
     381         1
     376         1
     375         1
     372         1
     368         1
     355         1
     350         1
     349         2
     348         1
     335         1
     329         1
     328         1
     326         1
     325         1
     321         1
     313         1
     295         1
     293         1
     292         2
     278         2
     275         1
     272         1
     258         1
     257         1
     256         1
     252         1
     251         1
     250         1
     243         1
     222         1
     220         1
     218         1
     217         1
     216         1
     199         1
     193         1
     192         1
     164         1
     154         1
     153         1
     146         1
     142         1
     132         1
     131         2
     127         1
     125         2
     120         1
     119         1
     106         1
     104         3
      90         1
      79         1
      74         1
      67         1
      66         1
      63         1
      55         1
      50         1
      49         2
      47         1
      29         2
      22         1
      21         2
      15         1
      13         1
       9         1
       6         2